10
20
613591
0
0
88 141 89 87 85 98 64 97 95 81 147 82 107 68 80 85 87 77 85 82
1
0
34 23 30 17 18 35 16 26 21 26 35 16 21 19 16 18 18 33 27 16
2
0
147 107 139 140 109 109 134 133 131 120 147 150 132 143 165 131 123 153 152 131
3
0
42 54 100 45 49 69 46 42 67 48 48 59 71 51 70 81 55 67 60 54
4
0
19 21 19 9 17 16 20 11 18 10 14 14 13 16 18 12 13 16 26 16
5
0
107 99 135 116 101 87 131 104 106 98 167 120 109 92 128 100 122 131 127 114
6
0
16 19 25 10 15 26 27 29 16 23 21 15 19 17 17 20 18 20 16 18
7
0
8 3 5 7 7 7 8 7 12 6 4 3 13 5 5 7 6 5 10 7
8
0
115 115 94 101 146 125 127 150 136 178 117 138 103 127 103 104 134 132 158 145
9
0
15 26 11 18 22 19 23 25 23 23 13 23 24 27 23 23 21 25 38 34
